Grasp exp. instance_n_25_m_5_id_5.lp tipoLifted 0 szPool 5 nIteration 20 alpha 0.4 
Academic license - for non-commercial use only
Read LP format model from file ../input/instancesGenerated/instance_n_25_m_5_id_5.lp
Reading time = 0.00 seconds
: 5 rows, 25 columns, 125 nonzeros
Optimize a model with 5 rows, 25 columns and 125 nonzeros
Variable types: 0 continuous, 25 integer (25 binary)
Coefficient statistics:
  Matrix range     [1e+00, 1e+01]
  Objective range  [1e+00, 1e+01]
  Bounds range     [1e+00, 1e+00]
  RHS range        [5e+01, 7e+01]
Found heuristic solution: objective 66.0000000

Explored 0 nodes (0 simplex iterations) in 0.00 seconds
Thread count was 1 (of 8 available processors)

Solution count 1: 66 
No other solutions better than 0

Solution limit reached
Best objective 6.600000000000e+01, best bound -, gap -
C_1:	 7.00 x_1  = 1.000000 + 8.00 x_2  = 0.000000 + 3.00 x_3  = 0.953878 + 5.00 x_4  = 1.000000 + 2.00 x_5  = 1.000000 + 3.00 x_6  = 1.000000 + 6.00 x_7  = 0.000000 + 4.00 x_8  = 1.000000 + 2.00 x_9  = 0.000000 + 7.00 x_10  = 0.000000 + 3.00 x_11  = 0.000000 + 8.00 x_12  = 0.571279 + 1.00 x_13  = 1.000000 + 2.00 x_14  = 0.000000 + 1.00 x_15  = 0.000000 + 1.00 x_16  = 0.670860 + 5.00 x_17  = 0.716981 + 9.00 x_18  = 0.000000 + 2.00 x_19  = 0.000000 + 1.00 x_20  = 1.000000 + 1.00 x_21  = 1.000000 + 9.00 x_22  = 0.000000 + 6.00 x_23  = 1.000000 + 1.00 x_24  = 1.000000 + 4.00 x_25  = 0.000000 <= 50.00
C_2:	 4.00 x_1  = 1.000000 + 9.00 x_2  = 0.000000 + 8.00 x_3  = 0.953878 + 2.00 x_4  = 1.000000 + 6.00 x_5  = 1.000000 + 3.00 x_6  = 1.000000 + 8.00 x_7  = 0.000000 + 5.00 x_8  = 1.000000 + 5.00 x_9  = 0.000000 + 4.00 x_10  = 0.000000 + 8.00 x_11  = 0.000000 + 10.00 x_12  = 0.571279 + 9.00 x_13  = 1.000000 + 2.00 x_14  = 0.000000 + 1.00 x_15  = 0.000000 + 5.00 x_16  = 0.670860 + 6.00 x_17  = 0.716981 + 10.00 x_18  = 0.000000 + 7.00 x_19  = 0.000000 + 7.00 x_20  = 1.000000 + 2.00 x_21  = 1.000000 + 10.00 x_22  = 0.000000 + 3.00 x_23  = 1.000000 + 10.00 x_24  = 1.000000 + 1.00 x_25  = 0.000000 <= 72.00
C_3:	 3.00 x_1  = 1.000000 + 1.00 x_2  = 0.000000 + 9.00 x_3  = 0.953878 + 9.00 x_4  = 1.000000 + 1.00 x_5  = 1.000000 + 4.00 x_6  = 1.000000 + 4.00 x_7  = 0.000000 + 1.00 x_8  = 1.000000 + 2.00 x_9  = 0.000000 + 5.00 x_10  = 0.000000 + 8.00 x_11  = 0.000000 + 4.00 x_12  = 0.571279 + 4.00 x_13  = 1.000000 + 4.00 x_14  = 0.000000 + 1.00 x_15  = 0.000000 + 7.00 x_16  = 0.670860 + 2.00 x_17  = 0.716981 + 10.00 x_18  = 0.000000 + 5.00 x_19  = 0.000000 + 3.00 x_20  = 1.000000 + 2.00 x_21  = 1.000000 + 1.00 x_22  = 0.000000 + 8.00 x_23  = 1.000000 + 1.00 x_24  = 1.000000 + 7.00 x_25  = 0.000000 <= 53.00
C_4:	 6.00 x_1  = 1.000000 + 2.00 x_2  = 0.000000 + 6.00 x_3  = 0.953878 + 8.00 x_4  = 1.000000 + 3.00 x_5  = 1.000000 + 6.00 x_6  = 1.000000 + 10.00 x_7  = 0.000000 + 5.00 x_8  = 1.000000 + 6.00 x_9  = 0.000000 + 8.00 x_10  = 0.000000 + 7.00 x_11  = 0.000000 + 10.00 x_12  = 0.571279 + 1.00 x_13  = 1.000000 + 7.00 x_14  = 0.000000 + 1.00 x_15  = 0.000000 + 7.00 x_16  = 0.670860 + 4.00 x_17  = 0.716981 + 6.00 x_18  = 0.000000 + 10.00 x_19  = 0.000000 + 8.00 x_20  = 1.000000 + 8.00 x_21  = 1.000000 + 6.00 x_22  = 0.000000 + 1.00 x_23  = 1.000000 + 7.00 x_24  = 1.000000 + 2.00 x_25  = 0.000000 <= 72.00
C_5:	 3.00 x_1  = 1.000000 + 8.00 x_2  = 0.000000 + 2.00 x_3  = 0.953878 + 2.00 x_4  = 1.000000 + 10.00 x_5  = 1.000000 + 1.00 x_6  = 1.000000 + 7.00 x_7  = 0.000000 + 3.00 x_8  = 1.000000 + 6.00 x_9  = 0.000000 + 6.00 x_10  = 0.000000 + 8.00 x_11  = 0.000000 + 4.00 x_12  = 0.571279 + 5.00 x_13  = 1.000000 + 2.00 x_14  = 0.000000 + 1.00 x_15  = 0.000000 + 5.00 x_16  = 0.670860 + 9.00 x_17  = 0.716981 + 2.00 x_18  = 0.000000 + 7.00 x_19  = 0.000000 + 7.00 x_20  = 1.000000 + 4.00 x_21  = 1.000000 + 4.00 x_22  = 0.000000 + 3.00 x_23  = 1.000000 + 10.00 x_24  = 1.000000 + 5.00 x_25  = 0.000000 <= 62.00
Solution initial: 105.818658 
Number Constraints Used in Cover:5
GRASP Method!
Number cuts repeat: 0
value: 105.818658
Number Constraints Used in Cover:8
GRASP Method!
Number cuts repeat: 0
value: 105.818658
Number Constraints Used in Cover:10
GRASP Method!
Number cuts repeat: 0
value: 105.818658
Number Constraints Used in Cover:15
GRASP Method!
Number cuts repeat: 0
value: 105.818658
Number Constraints Used in Cover:20
GRASP Method!
Number cuts repeat: 0
value: 105.818658
Number Constraints Used in Cover:24
GRASP Method!
Number cuts repeat: 0
value: 105.818658
Number Constraints Used in Cover:28
GRASP Method!
Number cuts repeat: 0
value: 105.818658
Number Constraints Used in Cover:35
GRASP Method!
Number cuts repeat: 0
value: 105.818658
Number Constraints Used in Cover:39
GRASP Method!
Number cuts repeat: 0
value: 105.818658
Number Constraints Used in Cover:45
GRASP Method!
Number cuts repeat: 0
value: 105.818658
Number Constraints Used in Cover:56
GRASP Method!
Number cuts repeat: 0
value: 105.818658
Number Constraints Used in Cover:66
GRASP Method!
Number cuts repeat: 0
value: 105.818658
Number Constraints Used in Cover:78
GRASP Method!
Number cuts repeat: 0
value: 105.818658
Number Constraints Used in Cover:88
GRASP Method!
Number cuts repeat: 0
value: 105.818658
Number Constraints Used in Cover:103
GRASP Method!
Number cuts repeat: 0
value: 105.818658
Number Constraints Used in Cover:122
GRASP Method!
Number cuts repeat: 0
value: 105.818658
Number Constraints Used in Cover:135
GRASP Method!
Number cuts repeat: 0
value: 105.818658
Number Constraints Used in Cover:155
GRASP Method!
Number cuts repeat: 0
value: 105.818658
Number Constraints Used in Cover:171
GRASP Method!
Number cuts repeat: 0
value: 105.818658
Number Constraints Used in Cover:184
GRASP Method!
Number cuts repeat: 0
value: 105.818658
Number Constraints Used in Cover:198
GRASP Method!
Number cuts repeat: 0
value: 105.818658
Number Constraints Used in Cover:217
GRASP Method!
Number cuts repeat: 0
value: 105.818658
Number Constraints Used in Cover:234
GRASP Method!
Number cuts repeat: 0
value: 105.818658
Number Constraints Used in Cover:256
GRASP Method!
Number cuts repeat: 0
value: 105.818658
Number Constraints Used in Cover:276
GRASP Method!
Number cuts repeat: 0
value: 105.818658
Number Constraints Used in Cover:293
GRASP Method!
Number cuts repeat: 0
value: 105.818658
Number Constraints Used in Cover:314
GRASP Method!
Number cuts repeat: 0
value: 105.818658
Number Constraints Used in Cover:338
GRASP Method!
Number cuts repeat: 0
value: 105.818658
Number Constraints Used in Cover:360
GRASP Method!
Number cuts repeat: 0
value: 105.818658
Number Constraints Used in Cover:383
GRASP Method!
Number cuts repeat: 0
value: 105.818658
Number Constraints Used in Cover:407
GRASP Method!
Number cuts repeat: 0
value: 105.818658
Number Constraints Used in Cover:424
GRASP Method!
Number cuts repeat: 0
value: 105.818658
Number Constraints Used in Cover:446
GRASP Method!
Number cuts repeat: 0
value: 105.818658
Number Constraints Used in Cover:470
GRASP Method!
Number cuts repeat: 0
value: 105.818658
Number Constraints Used in Cover:483
GRASP Method!
Number cuts repeat: 0
value: 105.818658
Number Constraints Used in Cover:500
GRASP Method!
Number cuts repeat: 0
value: 105.818658
Number Constraints Used in Cover:519
GRASP Method!
Number cuts repeat: 0
value: 105.818658
Number Constraints Used in Cover:538
GRASP Method!
Number cuts repeat: 0
value: 105.818658
Number Constraints Used in Cover:557
GRASP Method!
Number cuts repeat: 0
value: 105.818658
Number Constraints Used in Cover:574
GRASP Method!
Number cuts repeat: 0
value: 105.818658
Number Constraints Used in Cover:593
GRASP Method!
Number cuts repeat: 0
value: 105.818658
Number Constraints Used in Cover:611
GRASP Method!
Number cuts repeat: 0
value: 105.818658
Number Constraints Used in Cover:637
GRASP Method!
Number cuts repeat: 0
value: 105.818658
Number Constraints Used in Cover:653
GRASP Method!
Number cuts repeat: 0
value: 105.818658
Number Constraints Used in Cover:677
GRASP Method!
Number cuts repeat: 0
value: 105.818658
Number Constraints Used in Cover:701
GRASP Method!
Number cuts repeat: 0
value: 105.818658
Number Constraints Used in Cover:724
GRASP Method!
Number cuts repeat: 0
value: 105.818658
Number Constraints Used in Cover:738
GRASP Method!
Number cuts repeat: 0
value: 105.818658
Number Constraints Used in Cover:752
GRASP Method!
Number cuts repeat: 0
value: 105.818658
Number Constraints Used in Cover:779
GRASP Method!
Number cuts repeat: 0
value: 105.818658
Number Constraints Used in Cover:800
GRASP Method!
Number cuts repeat: 0
value: 105.818658
Number Constraints Used in Cover:822
GRASP Method!
Number cuts repeat: 0
value: 105.818658
Number Constraints Used in Cover:854
GRASP Method!
Number cuts repeat: 0
value: 105.818658
Number Constraints Used in Cover:879
GRASP Method!
Number cuts repeat: 0
value: 105.818658
Number Constraints Used in Cover:903
GRASP Method!
Number cuts repeat: 0
value: 105.818658
Number Constraints Used in Cover:928
GRASP Method!
Number cuts repeat: 0
value: 105.818658
Number Cuts Final: 953
